59 78
57 51
99 21
22 53
53 44
102 36
14 37
86 62
71 13
32 30
37 109
76 54
96 40
21 36
95 82
79 32
45 118
99 84
35 99
83 82
33 111
37 144
69 89
49 79
77 71
94 140
28 90
77 95
15 70
53 123
54 102
51 138
51 157
48 93
52 164
22 157
30 143
81 151
77 120
2 106
74 128
5 192
89 150
26 187
28 199
61 149
49 144
25 146
49 145
28 148
57 220
66 208
69 147
59 125
86 138
105 203
28 147
28 142
67 193
48 219
75 234
99 160
51 171
58 204
33 201
88 245
62 223
17 207
48 220
92 195
88 211
89 221
62 229
61 248
16 231
81 189
22 240
45 270
68 202
82 253
90 209
19 285
41 293
59 222
35 237
89 279
62 255
69 229
97 216
81 257
100 311
34 308
55 312
68 235
90 237
40 252
55 294
81 301
39 275
68 312
